<number of tasks>
20

<cycle time>
1000

<order strength>
0,5


<task times>
1 498
2 558
3 596
4 634
5 609
6 357
7 335
8 531
9 681
10 545
11 297
12 479
13 627
14 555
15 538
16 600
17 481
18 420
19 454
20 627

<precedence relations>
1,11
1,12
1,15
2,5
3,4
4,6
4,7
4,8
4,9
5,6
5,17
6,10
6,11
7,10
7,11
7,12
7,13
8,10
8,13
8,16
9,10
10,14
10,18
11,16
13,15
13,17
16,20
18,19

<end>
